words_hard_train/3302.qaiger
aag 47 24 0 1 23
2
4
8
12
14
18
22
24
28
34
36
40
44
46
50
58
60
64
68
70
74
80
82
86
94
6 2 4
10 6 8
16 12 14
20 16 18
26 22 24
30 26 28
32 21 31
38 34 36
42 38 40
48 44 46
52 48 50
54 43 53
56 32 54
62 58 60
66 62 64
72 68 70
76 72 74
78 67 77
84 80 82
88 84 86
90 78 89
92 56 90
94 11 93
i0 1 x2[7]
i1 1 x1[7]
i2 2 y1[7]
i3 1 x2[5]
i4 1 x1[5]
i5 2 y1[5]
i6 1 x1[6]
i7 2 y1[6]
i8 1 x2[6]
i9 1 x2[3]
i10 1 x1[3]
i11 2 y1[3]
i12 1 x2[2]
i13 1 x1[2]
i14 2 y1[2]
i15 1 x1[1]
i16 2 y1[1]
i17 1 x2[1]
i18 1 x1[4]
i19 2 y1[4]
i20 1 x2[4]
i21 1 x1[0]
i22 2 y1[0]
i23 1 x2[0]
o0 bv[0]
c
simplified
  >=
    and
      and
        2 y1
        1 x1
      1 x2
    abs
      1
