words_hard_train/3302.qaiger.qdimacs
p cnf 47 70
a 32 1 2 34 37 6 7 40 11 43 14 17 18 22 23 29 0
e 3 4 5 8 9 10 12 13 15 16 19 20 21 24 25 26 27 28 30 31 33 35 36 38 39 41 42 44 45 46 47 0
-1 -2 3 0
1 -3 0
2 -3 0
-3 -4 5 0
3 -5 0
4 -5 0
-6 -7 8 0
6 -8 0
7 -8 0
-8 -9 10 0
8 -10 0
9 -10 0
-11 -12 13 0
11 -13 0
12 -13 0
-13 -14 15 0
13 -15 0
14 -15 0
10 15 16 0
-10 -16 0
-15 -16 0
-17 -18 19 0
17 -19 0
18 -19 0
-19 -20 21 0
19 -21 0
20 -21 0
-22 -23 24 0
22 -24 0
23 -24 0
-24 -25 26 0
24 -26 0
25 -26 0
21 26 27 0
-21 -27 0
-26 -27 0
-16 -27 28 0
16 -28 0
27 -28 0
-29 -30 31 0
29 -31 0
30 -31 0
-31 -32 33 0
31 -33 0
32 -33 0
-34 -35 36 0
34 -36 0
35 -36 0
-36 -37 38 0
36 -38 0
37 -38 0
33 38 39 0
-33 -39 0
-38 -39 0
-40 -41 42 0
40 -42 0
41 -42 0
-42 -43 44 0
42 -44 0
43 -44 0
-39 44 45 0
39 -45 0
-44 -45 0
-28 -45 46 0
28 -46 0
45 -46 0
5 46 47 0
-5 -47 0
-46 -47 0
47 0
